CLP/out/Inst08.txt
[[0, 6, 14, 11, 7, 4, 29, 1, 17, 3, 2, 15, 9, 8, 12, 10, 13, 5, 0],[0, 77, 109, 24, 87, 54, 56, 100, 63, 0],[0, 51, 93, 34, 19, 106, 16, 70, 33, 48, 0],[0, 28, 125, 23, 118, 22, 116, 21, 20, 136, 18, 27, 0],[0, 74, 30, 43, 32, 47, 37, 49, 41, 36, 44, 39, 50, 0],[0, 60, 65, 61, 72, 40, 71, 57, 67, 55, 68, 64, 58, 0],[0, 98, 123, 114, 127, 25, 38, 108, 119, 89, 124, 83, 92, 0],[0, 88, 138, 76, 75, 141, 73, 99, 102, 80, 84, 78, 131, 85, 0],[0, 112, 132, 121, 66, 143, 42, 140, 113, 115, 133, 117, 81, 129, 130, 105, 107, 0],[0, 137, 128, 86, 31, 134, 90, 142, 26, 139, 46, 45, 104, 52, 110, 97, 69, 120, 101, 82, 62, 122, 53, 126, 96, 59, 135, 0],[0, 103, 79, 95, 91, 111, 94, 35, 0],[],[],[],[],[],[],[],[],[]]

Total distance = 12286
